DATASET = "thpack3";
INSTANCE = "027";

WIDTH = 233;
HEIGHT = 220;
LENGTH = 587;

NO_OF_SHAPES = 8;
size = [|
  118,66,47 |
  99,56,25 |
  91,83,48 |
  104,66,40 |
  75,60,33 |
  113,78,60 |
  36,36,29 |
  56,48,40 |
|];

verticality = [|
  0,1,1 |
  0,0,1 |
  1,1,1 |
  0,1,1 |
  0,1,1 |
  1,1,1 |
  1,1,1 |
  1,1,1 |
|];

box_count = [
  14,
  19,
  14,
  15,
  14,
  17,
  12,
  15,
];
